<?xml version = "1.0" encoding="UTF-8" standalone="yes"?>
<CPLEXSolution version="1.2">
 <header
   problemName=""
   objectiveValue="184"
   solutionTypeValue="1"
   solutionTypeString="basic"
   solutionStatusValue="1"
   solutionStatusString="optimal"
   solutionMethodString="dual"
   primalFeasible="1"
   dualFeasible="1"
   simplexIterations="6"
   writeLevel="1"/>
 <quality
   epRHS="9.9999999999999995e-07"
   epOpt="9.9999999999999995e-07"
   maxPrimalInfeas="0"
   maxDualInfeas="0"
   maxPrimalResidual="0"
   maxDualResidual="0"
   maxX="16"
   maxPi="9"
   maxSlack="0"
   maxRedCost="7"
   kappa="16.799999999999997"/>
 <linearConstraints>
  <constraint index="0" status="LL" slack="0" dual="7"/>
  <constraint index="1" status="LL" slack="0" dual="9"/>
  <constraint index="2" status="LL" slack="0" dual="7"/>
  <constraint index="3" status="LL" slack="0" dual="1"/>
  <constraint index="4" status="LL" slack="0" dual="2"/>
  <constraint index="5" status="BS" slack="0" dual="0"/>
  <constraint index="6" status="LL" slack="0" dual="-2"/>
  <constraint index="7" status="LL" slack="0" dual="-3"/>
  <constraint index="8" status="LL" slack="0" dual="-1"/>
 </linearConstraints>
 <variables>
  <variable name="x05" index="0" status="BS" value="2" reducedCost="0"/>
  <variable name="x03" index="1" status="UL" value="8" reducedCost="-4"/>
  <variable name="x13" index="2" status="UL" value="7" reducedCost="-3"/>
  <variable name="x12" index="3" status="BS" value="3" reducedCost="0"/>
  <variable name="x23" index="4" status="BS" value="4" reducedCost="0"/>
  <variable name="x24" index="5" status="BS" value="3" reducedCost="0"/>
  <variable name="x28" index="6" status="UL" value="6" reducedCost="-4"/>
  <variable name="x35" index="7" status="BS" value="16" reducedCost="0"/>
  <variable name="x36" index="8" status="BS" value="3" reducedCost="0"/>
  <variable name="x37" index="9" status="LL" value="0" reducedCost="0"/>
  <variable name="x48" index="10" status="BS" value="3" reducedCost="0"/>
  <variable name="x56" index="11" status="UL" value="10" reducedCost="-1"/>
  <variable name="x67" index="12" status="BS" value="6" reducedCost="0"/>
  <variable name="x74" index="13" status="LL" value="0" reducedCost="7"/>
 </variables>
 <objectiveValues>
  <objective index="0" name="" value="184"/>
 </objectiveValues>
</CPLEXSolution>
